c --- [ banner ] -------------------------------------------------------------
c 
c CaDiCaL Radically Simplified CDCL SAT Solver
c Copyright (c) 2016-2021 A. Biere, M. Fleury, N. Froleyks
c 
c Version 1.5.2 a5f15211db36c3956764e18194dd5bd63bf3b5e6
c g++ (GCC) 9.3.0 -Wall -Wextra -O3 -DNDEBUG
c Fri Oct 21 01:27:37 EDT 2022 Linux gra-login3 3.10.0-1160.66.1.el7.x86_64 x86_64
c 
c --- [ limit ] --------------------------------------------------------------
c 
c setting conflict limit to 200000 conflicts (due to '200000')
c 
c --- [ parsing input ] ------------------------------------------------------
c 
c reading DIMACS file from '33.cubes707.adj'
c opening file to read '33.cubes707.adj'
c found 'p cnf 6160 1595473' header
c parsed 1595473 clauses in 19.59 seconds process time
c closing file '33.cubes707.adj'
c after reading 1457566758 bytes 1390.0 MB
c 
c --- [ options ] ------------------------------------------------------------
c 
c all options are set to their default value
c 
c --- [ solving ] ------------------------------------------------------------
c 
c time measured in process time since initialization
c 
c  seconds    reductions  redundant   irredundant
c          MB     restarts       trail       variables
c            level   conflicts       glue         remaining
c 
c * 19.59 1362  0 0   0    0    0  0% 0 1595422 2314 38%
c { 20.97 1421  0 0   0    0    0  0% 0 1595422 2314 38%
c i 21.34 1429 1142 0   0    7    5 37% 2 1595422 2308 37%
c i 22.68 1469 813 0   2   25   21 37% 11 1595422 2292 37%
c i 23.97 1483 287 0  13   75   62 30% 19 1595422 2273 37%
c i 24.78 1489 220 0  20  104   90 30% 20 1595422 2272 37%
c i 24.87 1489 180 0  21  132  115 30% 20 1595422 2271 37%
c i 24.87 1489 176 0  21  136  117 30% 20 1595422 2270 37%
c i 24.88 1489 171 0  21  141  121 30% 20 1595422 2269 37%
c i 24.95 1490 149 0  21  166  143 30% 21 1595422 2268 37%
c i 24.95 1490 147 0  21  169  145 30% 20 1595422 2267 37%
c i 24.96 1490 143 0  21  175  149 30% 20 1595422 2266 37%
c i 24.98 1490 142 0  21  176  149 30% 20 1595422 2265 37%
c i 24.98 1490 141 0  21  177  149 30% 20 1595422 2264 37%
c i 25.00 1490 139 0  21  183  154 30% 21 1595422 2263 37%
c i 25.04 1490 134 0  24  193  162 30% 22 1595422 2262 37%
c i 25.11 1490 134 0  26  198  166 30% 22 1595422 2261 37%
c i 26.00 1490 118 0  34  254  211 29% 22 1595422 2260 37%
c i 26.03 1490 116 0  34  259  215 29% 22 1595422 2259 37%
c i 26.08 1490 115 0  34  262  217 29% 22 1595422 2258 37%
c 
c  seconds     reductions  redundant    irredundant
c          MB      restarts       trail        variables
c             level   conflicts       glue          remaining
c 
c i 26.20 1490 116 0  35  271  224 29% 23 1595422 2257 37%
c i 26.56 1490 115 0  40  289  239 29% 23 1595422 2256 37%
c - 30.34 1447 111 1  40  301  251 29% 22 259099 2256 37%
c i 30.62 1404 108 1  40  318  266 29% 22 259099 2255 37%
c i 30.65 1404 107 1  40  321  268 29% 22 259099 2254 37%
c i 30.70 1404 103 1  40  339  281 29% 22 259099 2253 37%
c i 30.76 1404 98 1  40  360  294 28% 21 259099 2252 37%
c i 30.76 1404 98 1  40  362  295 28% 21 259099 2251 37%
c i 30.78 1404 97 1  40  366  298 28% 21 259099 2250 37%
c i 30.81 1404 96 1  40  368  299 28% 21 259099 2249 37%
c i 30.83 1404 96 1  40  371  301 28% 21 259099 2248 36%
c i 30.87 1404 96 1  40  382  310 28% 22 259099 2247 36%
c i 30.87 1404 96 1  42  388  315 28% 22 259099 2246 36%
c i 30.87 1404 96 1  42  390  316 28% 22 259099 2245 36%
c i 30.87 1404 95 1  43  393  317 28% 22 259099 2244 36%
c i 30.90 1404 95 1  45  399  321 28% 22 259099 2243 36%
c i 30.90 1404 94 1  46  400  321 28% 22 259099 2242 36%
c i 30.94 1404 94 1  48  409  329 28% 23 259099 2241 36%
c i 31.05 1404 86 1  52  457  357 28% 21 259099 2240 36%
c i 31.08 1404 84 1  52  468  366 28% 21 259099 2239 36%
c 
c  seconds    reductions  redundant   irredundant
c          MB     restarts       trail       variables
c            level   conflicts       glue         remaining
c 
c i 31.16 1404 82 1  52  481  375 28% 21 259099 2238 36%
c i 31.17 1404 82 1  52  483  376 28% 21 259099 2237 36%
c i 31.17 1404 81 1  52  490  382 28% 20 259099 2236 36%
c i 31.17 1404 81 1  52  491  382 28% 20 259099 2235 36%
c i 31.23 1404 79 1  52  519  405 28% 21 259099 2234 36%
c i 31.25 1404 78 1  52  530  414 28% 21 259099 2233 36%
c i 31.39 1404 77 1  55  564  440 28% 22 259099 2232 36%
c i 31.42 1404 77 1  57  574  447 28% 22 259099 2231 36%
c i 31.72 1404 72 1  77  656  515 28% 22 259099 2230 36%
c i 31.85 1404 71 1  82  679  533 28% 22 259099 2229 36%
c i 31.89 1404 70 1  82  699  546 28% 22 259099 2228 36%
c i 31.89 1404 70 1  82  701  547 28% 22 259099 2227 36%
c i 31.89 1404 69 1  82  702  547 28% 22 259099 2226 36%
c i 31.92 1404 68 1  82  722  563 28% 22 259099 2225 36%
c i 31.92 1404 68 1  82  725  565 28% 21 259099 2224 36%
c i 31.92 1404 67 1  82  726  565 28% 21 259099 2223 36%
c i 31.93 1404 67 1  82  728  566 28% 21 259099 2222 36%
c i 31.93 1404 67 1  82  731  568 28% 21 259099 2221 36%
c i 32.00 1404 66 1  82  766  599 28% 21 259099 2220 36%
c i 32.00 1404 65 1  82  773  605 28% 21 259099 2219 36%
c 
c  seconds    reductions  redundant   irredundant
c          MB     restarts       trail       variables
c            level   conflicts       glue         remaining
c 
c i 32.03 1404 65 1  82  778  609 28% 21 259099 2218 36%
c i 32.08 1404 64 1  83  812  636 28% 21 259099 2217 36%
c i 32.09 1404 63 1  83  824  644 28% 21 259099 2216 36%
c i 32.15 1404 59 1  83  922  706 28% 21 259099 2215 36%
c } 32.21 1404 56 1  83 1004  756 28% 21 259099 2215 36%
c [ 32.21 1404  0 1  83 1004  756  0% 0 259099 2215 36%
c O 32.21 1404  2 1  83 1005  757 14% 1 259099 2215 36%
c i 32.29 1404  6 1  83 1008  759 24% 4 259099 2214 36%
c i 32.34 1404 10 1  83 1012  762 28% 8 259099 2213 36%
c i 32.39 1404 14 1  83 1027  775 31% 11 259099 2212 36%
c i 32.41 1404 16 1  83 1046  790 32% 13 259099 2211 36%
c i 32.41 1404 16 1  83 1048  791 32% 13 259099 2210 36%
c i 32.41 1404 16 1  83 1051  793 32% 13 259099 2209 36%
c i 32.43 1404 15 1  83 1071  810 32% 12 259099 2208 36%
c i 32.43 1404 15 1  83 1072  810 32% 12 259099 2207 36%
c i 32.46 1404 17 1  83 1119  851 32% 13 259099 2206 36%
c i 32.46 1404 17 1  83 1123  854 32% 13 259099 2205 36%
c i 32.46 1404 17 1  83 1132  860 31% 12 259099 2204 36%
c i 32.47 1404 17 1  83 1139  865 31% 12 259099 2203 36%
c i 32.47 1404 17 1  83 1145  870 31% 12 259099 2202 36%
c 
c  seconds    reductions  redundant   irredundant
c          MB     restarts       trail       variables
c            level   conflicts       glue         remaining
c 
c i 32.47 1404 16 1  83 1146  870 31% 12 259099 2201 36%
c - 32.92 1443 17 2  83 1149  752 31% 12 258936 2201 36%
c i 33.00 1443 17 2  83 1195  783 32% 12 258936 2200 36%
c i 33.01 1443 17 2  83 1209  792 32% 12 258936 2199 36%
c i 33.03 1443 17 2  83 1220  801 32% 13 258936 2198 36%
c ] 33.05 1443 17 2  83 1249  828 32% 13 258936 2198 36%
c 1 33.05 1443 17 2  83 1249  828 32% 13 258936 2198 36%
c 
c --- [ writing output ] -----------------------------------------------------
c 
c writing simplified CNF to DIMACS file 'simp/33.cubes707.adj.simp1'
c * 33.05 1443 17 2  83 1249  828 32% 13 258936 2198 36%
c opening file to write 'simp/33.cubes707.adj.simp1'
c writing 'p cnf 6160 258927' header
c closing file 'simp/33.cubes707.adj.simp1'
c after writing 99152876 bytes 94.6 MB
c wrote 258927 clauses in 0.76 seconds process time
c 
c --- [ writing extension ] --------------------------------------------------
c 
c writing extension stack to 'simp/33.cubes707.adj.ext1'
c opening file to write 'simp/33.cubes707.adj.ext1'
c closing file 'simp/33.cubes707.adj.ext1'
c after writing 12238 bytes 0.0 MB
c wrote 818 witnesses in 0.00 seconds process time
c 
c --- [ result ] -------------------------------------------------------------
c 
s SATISFIABLE
c 
c --- [ run-time profiling ] -------------------------------------------------
c 
c process time taken by individual solving procedures
c (percentage relative to process time for solving)
c 
c        19.59  145.54% parse
c        13.46  100.00% search
c        11.23   83.48% unstable
c         1.39   10.30% lucky
c         0.84    6.22% stable
c         0.00    0.00% simplify
c   =================================
c        13.46   39.80% solve
c 
c last line shows process time for solving
c (percentage relative to total process time)
c 
c --- [ statistics ] ---------------------------------------------------------
c 
c chronological:               456        36.51 %  of conflicts
c conflicts:                  1249        92.81    per second
c decisions:                 18342      1362.88    per second
c fixed:                       818        13.28 %  of all variables
c learned:                    1228        98.32 %  per conflict
c learned_lits:             143725       100.00 %  learned literals
c minimized:                     0         0.00 %  learned literals
c shrunken:                  75718        52.68 %  learned literals
c minishrunken:              12073         8.40 %  learned literals
c propagations:             251924         0.02 M  per second
c reduced:                     120         9.61 %  per conflict
c rephased:                      1      1249.00    interval
c restarts:                     83        15.05    interval
c stabilizing:                   1        19.62 %  of conflicts
c subsumed:                    201         0.01 %  of all clauses
c 
c seconds are measured in process time for solving
c 
c --- [ resources ] ----------------------------------------------------------
c 
c total process time since initialization:        33.81    seconds
c total real time since initialization:           34.15    seconds
c maximum resident set size of process:         1493.68    MB
c 
c --- [ shutting down ] ------------------------------------------------------
c 
c exit 10
WARNING! DIMACS header mismatch: wrong number of variables.
============================[ Problem Statistics ]=============================
|                                                                             |
|  Number of variables:          6120                                         |
|  Number of clauses:          258927                                         |
|  Parse time:                   1.33 s                                       |
|  Simplification time:          0.02 s                                       |
|                                                                             |
============================[ Search Statistics ]====================================================
| Conflicts |          ORIGINAL         |          LEARNT          | Num Sols |      SUBGRAPHS      |
|           |    Vars  Clauses Literals |    Limit  Clauses Lit/Cl |          | Canonical Noncanon. |
=====================================================================================================
|       124 |    6022   258951 22033560 |     2000      123     10 |        0 |        50        24 |
|       439 |    6022   259116 22035380 |     2000      438     13 |        0 |       141       189 |
|       868 |    6015   259320 22039019 |     2000      860     20 |        0 |       260       393 |
|      1500 |    6007   259615 22043477 |     2000     1484     24 |        0 |       380       688 |
|      2317 |    6005   259926 22047611 |     3591     1308     19 |        0 |       576       999 |
|      3527 |    6003   260377 22054619 |     3591     2516     32 |        0 |       687      1450 |
|      5772 |    5997   261483 22069842 |     4992     2963     14 |        0 |      1169      2556 |
|      9933 |    5994   263936 22101629 |     6299     4631     20 |        0 |      1866      5009 |
|     14360 |    5994   265801 22126673 |     7554     5914     18 |        0 |      2475      6874 |
|     22242 |    5994   269839 22177311 |     9997     5639     13 |        0 |      3274     10912 |
=====================================================================================================
Number of solutions   : 0
Canonical subgraphs   : 4110           (147 /sec)
          order  3    : 1              (200000 /sec)
          order  4    : 1              (500000 /sec)
          order  5    : 1              (200000 /sec)
          order  6    : 1              (50000 /sec)
          order  7    : 2              (10526 /sec)
          order  8    : 6              (2618 /sec)
          order  9    : 23             (804 /sec)
          order 10    : 92             (246 /sec)
          order 11    : 513            (184 /sec)
          order 12    : 2655           (151 /sec)
          order 13    : 394            (163 /sec)
          order 14    : 268            (103 /sec)
          order 15    : 101            (72 /sec)
          order 16    : 23             (68 /sec)
          order 17    : 15             (65 /sec)
          order 18    : 13             (62 /sec)
          order 19    : 1              (70 /sec)
          order 20    : 0              (-nan /sec)
          order 21    : 0              (-nan /sec)
          order 22    : 0              (-nan /sec)
Noncanonical subgraphs: 15125          (1057 /sec)
          order  3    : 0              (-nan /sec)
          order  4    : 0              (-nan /sec)
          order  5    : 0              (-nan /sec)
          order  6    : 0              (-nan /sec)
          order  7    : 0              (-nan /sec)
          order  8    : 0              (-nan /sec)
          order  9    : 0              (-nan /sec)
          order 10    : 0              (-nan /sec)
          order 11    : 0              (-nan /sec)
          order 12    : 0              (-nan /sec)
          order 13    : 12789          (1055 /sec)
          order 14    : 1720           (1166 /sec)
          order 15    : 519            (933 /sec)
          order 16    : 93             (639 /sec)
          order 17    : 2              (513 /sec)
          order 18    : 2              (4301 /sec)
          order 19    : 0              (-nan /sec)
          order 20    : 0              (-nan /sec)
          order 21    : 0              (-nan /sec)
Canonicity checking   : 28.03 s
Noncanonicity checking: 14.3064 s
Total canonicity time : 42.3364 s
database reductions   : 7
restarts              : 119
conflicts             : 31835          (464 /sec)
decisions             : 75071          (0.00 % random) (1093 /sec)
propagations          : 3688111        (53700 /sec)
conflict literals     : 933861         (53.09 % deleted)
actual reward         : 0.068011
Memory used           : 152.00 MB
CPU time              : 68.6793 s

UNSATISFIABLE
